506036
506036
506036
506036
505780
505780
500742
500742
500742
500742
499129
491515
491515
491515
491515
491515
473965
463189
463189
461804
450564
450564
450564
450564
450564
450564
450205
445873
445873
445873
445873
445873
445873
445873
444588
443685
442675
436185
436185
436185
435755
429456
429357
429357
429357
429357
427145
427145
427145
427145
427145
427145
424482
417424
417424
417424
417424
412061
412061
412061
412061
412061
412061
412061
412061
412061
412061
412061
404237
404237
404237
404237
404237
402995
402995
401673
400970
400970
400970
400970
400970
400970
400970
397188
397188
397188
396110
396110
390891
390891
386291
386291
386291
386291
386291
386291
386208
384127
384127
384127
